
Gurobi 11.0.1 (win64) logging started Wed May 15 12:33:47 2024

Set parameter LogFile to value "output/solver_log46.txt"
Gurobi Optimizer version 11.0.1 build v11.0.1rc0 (win64 - Windows 11.0 (22631.2))

CPU model: 11th Gen Intel(R) Core(TM) i7-1165G7 @ 2.80GHz, instruction set [SSE2|AVX|AVX2|AVX512]
Thread count: 4 physical cores, 8 logical processors, using up to 8 threads

Optimize a model with 2335 rows, 484 columns and 43267 nonzeros
Model fingerprint: 0x8b5a6a5d
Variable types: 248 continuous, 236 integer (236 binary)
Coefficient statistics:
  Matrix range     [4e-01, 1e+05]
  Objective range  [1e+00, 1e+02]
  Bounds range     [1e+00, 1e+00]
  RHS range        [1e-02, 1e+05]

User MIP start produced solution with objective 77395.6 (0.01s)
Loaded user MIP start with objective 77395.6

Presolve removed 145 rows and 134 columns
Presolve time: 0.06s
Presolved: 2190 rows, 350 columns, 42014 nonzeros
Variable types: 228 continuous, 122 integer (119 binary)

Root relaxation: cutoff, 15 iterations, 0.01 seconds (0.01 work units)

    Nodes    |    Current Node    |     Objective Bounds      |     Work
 Expl Unexpl |  Obj  Depth IntInf | Incumbent    BestBd   Gap | It/Node Time

     0     0     cutoff    0      77395.5938 77395.5938  0.00%     -    0s

Explored 1 nodes (15 simplex iterations) in 0.15 seconds (0.18 work units)
Thread count was 8 (of 8 available processors)

Solution count 2: 77395.6 77395.6 

Optimal solution found (tolerance 1.00e-04)
Best objective 7.739559379171e+04, best bound 7.739559379171e+04, gap 0.0000%
